p icnf
i 1 0
i -22 0
i -5 -16 0
i 4 0
i 10 -18 0
i -8 0
i -12 0
i 16 -11 16 0
i -5 18 0
i 5 17 0
i 6 0
i -17 3 0
i -17 -10 0
i -9 11 0
i -3 10 26 0
i 26 9 0
i -15 0
i 4 0
i 6 0
i -22 0
i 2 0
i 7 0
q -37 203 -149 -228 -194 -169 179 -162 42 175 -137 -189 -57 23 -79 190 52 -104 86 180 231 -20 -33 0
s SATISFIABLE
m 1 2 3 4 -5 6 7 -8 9 -10 11 -12 -15 16 17 -18 -20 -22 23 26 -33 -37 42 52 -57 -79 86 -104 -137 -149 -162 -169 175 179 180 -189 190 -194 203 -228 231 0
